p edge 30 100 15
v 2 5 7
v 1 29
v 3 2 12 22
v 1 16
v 3 15 24 25
v 3 8 11 17
v 1 18
v 1 30
v 3 9 21 27
v 2 10 26
v 2 4 13
v 1 23
v 3 19 20 28
v 3 3 6 14
v 1 1
e 1 2
e 1 7
e 1 9
e 1 14
e 1 15
e 1 22
e 1 23
e 1 26
e 1 28
e 1 29
e 2 4
e 2 6
e 2 11
e 2 12
e 2 20
e 2 22
e 2 24
e 2 26
e 2 29
e 2 30
e 3 8
e 3 20
e 3 21
e 3 22
e 3 26
e 3 29
e 3 30
e 4 5
e 4 10
e 4 28
e 5 13
e 5 20
e 5 24
e 5 27
e 6 21
e 6 24
e 6 28
e 7 8
e 7 10
e 7 13
e 7 17
e 7 19
e 7 20
e 7 25
e 7 29
e 7 30
e 8 9
e 8 12
e 8 13
e 8 15
e 8 20
e 8 21
e 8 29
e 9 17
e 9 20
e 9 21
e 10 13
e 10 19
e 10 23
e 10 30
e 11 23
e 11 26
e 11 27
e 11 29
e 12 17
e 12 19
e 12 23
e 13 14
e 13 20
e 13 28
e 14 17
e 14 20
e 14 28
e 15 20
e 15 26
e 15 29
e 15 30
e 16 19
e 16 21
e 17 20
e 17 30
e 18 22
e 18 30
e 19 20
e 19 25
e 20 21
e 20 24
e 20 25
e 20 27
e 20 29
e 20 30
e 21 24
e 21 28
e 22 24
e 22 30
e 23 24
e 24 30
e 25 26
e 25 27
e 26 30
